crytasl_CONTCAR\(0\0\-1)                
   1.00000000000000     
     3.2544000148999999    0.0000000000000000    0.0000000000000000
    -1.6272000073999999    2.8183930870000000    0.0000000000000000
     0.0000000000000000    0.0000000000000000   20.0000000000000000
   Ga   N 
     1     1
Direct
  0.0000000000000000  0.0000000000000000  0.0000000000000000
  0.3333299999999966  0.6666700000000034  0.0000000000000000
 
  0.00000000E+00  0.00000000E+00  0.00000000E+00
  0.00000000E+00  0.00000000E+00  0.00000000E+00
null
