1CONTCAR\(0\0\-1)                       
   1.00000000000000     
     3.6289000511000000    0.0000000000000000    0.0000000000000000
    -1.8144500256000000    3.1427196320999999    0.0000000000000000
     0.0000000000000000    0.0000000000000000   20.0000000000000000
   In   N 
     1     1
Direct
  0.0000000000000000  0.0000000000000000  0.0000000000000000
  0.3333299999999966  0.6666700000000034  0.0000000000000000
 
  0.00000000E+00  0.00000000E+00  0.00000000E+00
  0.00000000E+00  0.00000000E+00  0.00000000E+00
null
