BN_unicell\(0\0\-1)                     
   1.00000000000000     
     2.5123999118999998    0.0000000000000000    0.0000000000000000
    -1.2561999559000001    2.1758021481999998    0.0000000000000000
     0.0000000000000000    0.0000000000000000   20.0000000000000000
   B    N 
     1     1
Direct
  0.6666700000000034  0.3333299999999966  0.0000000000000000
  0.3333299999999966  0.6666700000000034  0.0000000000000000
 
  0.00000000E+00  0.00000000E+00  0.00000000E+00
  0.00000000E+00  0.00000000E+00  0.00000000E+00
null
