AlN001_unitcell\(0\0\-1)                
   1.00000000000000     
     3.3120999335999999    0.0000000000000000    0.0000000000000000
    -1.6560499667999999    2.8683626823999999    0.0000000000000000
     0.0000000000000000    0.0000000000000000   20.0000000000000000
   Al   N 
     1     1
Direct
  0.6666700000000034  0.3333299999999966  0.0000000000000000
  0.3333299999999966  0.6666700000000034  0.0000000000000000
 
  0.00000000E+00  0.00000000E+00  0.00000000E+00
  0.00000000E+00  0.00000000E+00  0.00000000E+00
null
